param n := 15; # number of vertices
param k := 2; # color
param : E : mu :=
1 15 1
2 15 1
2 3 1
2 4 1
3 5 1
4 5 1
5 6 1
5 11 2
5 12 2
5 13 2
5 14 2
6 9 1
7 8 1
7 11 2
7 12 2
7 13 2
7 14 2
7 15 1
8 10 1
8 14 2
11 12 2
11 13 2
12 13 2
;
